Curious George
9 133 9 133 9 133 9 133 9 133 9 133 9 133 9 133 9 133 9 133 9 133 9 133 9 133 9 133 9 133 9 133 9 133 9 133 9 133 9 133 9 133 9 133 9 133 9 133 9 133 9 133 9 133 9 133 9 133 9 133 9 133 9 133 9 133 9 133 9 133 9 133 9 133 9 133 9 133 9 133 9 133 9 133 9 133 9 133 9 133 9 133 9 133 9 133 9 133 9 133 9 133 9 133 9 133 9 133 9 133 9 133 9 133 9 133 9 133 9 133 9 133 9 133 9 133 9 133 9 133 9 133 9 133 9 133 9 133 9 133 9 133 9 133 9 133 9 133 9 133 9 133 9 133 9 133 9 133 9 133 9 133 9 133 9 133 9 133 9 133 9 133 9 133 9 133 9 133 9 133 9 133 9 133 9 133 9 133 9 133 9 133 9 133 9 133 9 133 9 133 
22 32 22 32 22 32 22 32 22 32 22 32 22 32 22 32 22 32 22 32 22 32 22 32 22 32 22 32 22 32 22 32 22 32 22 32 22 32 22 32 22 32 22 32 22 32 22 32 22 32 22 32 22 32 22 32 22 32 22 32 22 32 22 32 22 32 22 32 22 32 22 32 22 32 22 32 22 32 22 32 22 32 22 32 22 32 22 32 22 32 22 32 22 32 22 32 22 32 22 32 22 32 22 32 22 32 22 32 22 32 22 32 22 32 22 32 22 32 22 32 22 32 22 32 22 32 22 32 22 32 22 32 22 32 22 32 22 32 22 32 22 32 22 32 22 32 22 32 22 32 22 32 22 32 22 32 22 32 22 32 22 32 22 32 22 32 22 32 22 32 22 32 22 32 22 32 22 32 22 32 22 32 22 32 22 32 22 32 22 32 22 32 22 32 22 32 22 32 22 32 
3 59 3 59 3 59 3 59 3 59 3 59 3 59 3 59 3 59 3 59 3 59 3 59 3 59 3 59 3 59 3 59 3 59 3 59 3 59 3 59 3 59 3 59 3 59 3 59 3 59 3 59 3 59 3 59 3 59 3 59 3 59 3 59 3 59 3 59 3 59 3 59 3 59 3 59 3 59 3 59 3 59 3 59 3 59 3 59 3 59 3 59 3 59 3 59 3 59 3 59 3 59 3 59 3 59 3 59 3 59 3 59 3 59 3 59 3 59 3 59 3 59 3 59 3 59 3 59 3 59 3 59 3 59 3 59 3 59 3 59 3 59 3 59 3 59 3 59 3 59 3 59 3 59 3 59 3 59 3 59 3 59 3 59 3 59 3 59 3 59 3 59 3 59 3 59 3 59 3 59 3 59 3 59 3 59 3 59 3 59 3 59 3 59 3 59 3 59 3 59 
120 164 120 164 120 164 120 164 120 164 120 164 120 164 120 164 120 164 120 164 120 164 120 164 120 164 120 164 120 164 120 164 120 164 120 164 120 164 120 164 120 164 120 164 120 164 120 164 120 164 120 164 120 164 120 164 120 164 120 164 120 164 120 164 120 164 120 164 120 164 120 164 120 164 120 164 120 164 120 164 120 164 120 164 120 164 120 164 120 164 120 164 120 164 120 164 120 164 120 164 120 164 120 164 120 164 120 164 120 164 120 164 120 164 120 164 120 164 120 164 120 164 120 164 120 164 120 164 120 164 120 164 120 164 120 164 120 164 120 164 120 164 120 164 120 164 120 164 120 164 120 164 120 164 120 164 120 164 120 164 120 164 120 164 120 164 120 164 120 164 120 164 120 164 120 164 120 164 120 164 120 164 120 164 120 164 120 164 120 164 120 164 120 164 120 164 120 164 120 164 
26 111 26 111 26 111 26 111 26 111 26 111 26 111 26 111 26 111 26 111 26 111 26 111 26 111 26 111 26 111 26 111 26 111 26 111 26 111 26 111 26 111 26 111 26 111 26 111 26 111 26 111 26 111 26 111 26 111 26 111 26 111 26 111 26 111 26 111 26 111 26 111 26 111 26 111 26 111 26 111 26 111 26 111 26 111 26 111 26 111 26 111 26 111 26 111 26 111 26 111 26 111 26 111 26 111 26 111 26 111 26 111 26 111 26 111 26 111 26 111 26 111 26 111 26 111 26 111 26 111 26 111 26 111 26 111 26 111 26 111 26 111 26 111 26 111 26 111 26 111 26 111 26 111 26 111 26 111 26 111 26 111 26 111 26 111 26 111 26 111 26 111 26 111 26 111 26 111 26 111 26 111 26 111 26 111 26 111 26 111 26 111 26 111 26 111 26 111 26 111 
32 114 32 114 32 114 32 114 32 114 32 114 32 114 32 114 32 114 32 114 32 114 32 114 32 114 32 114 32 114 32 114 32 114 32 114 32 114 32 114 32 114 32 114 32 114 32 114 32 114 32 114 32 114 32 114 32 114 32 114 32 114 32 114 32 114 32 114 32 114 32 114 32 114 32 114 32 114 32 114 32 114 32 114 32 114 32 114 32 114 32 114 32 114 32 114 32 114 32 114 32 114 32 114 32 114 32 114 32 114 32 114 32 114 32 114 32 114 32 114 32 114 32 114 32 114 32 114 32 114 32 114 32 114 32 114 32 114 32 114 32 114 32 114 32 114 32 114 32 114 32 114 32 114 32 114 32 114 32 114 32 114 32 114 32 114 32 114 32 114 32 114 32 114 32 114 32 114 32 114 32 114 32 114 32 114 32 114 32 114 32 114 32 114 32 114 32 114 32 114 
32 102 32 102 32 102 32 102 32 102 32 102 32 102 32 102 32 102 32 102 32 102 32 102 32 102 32 102 32 102 32 102 32 102 32 102 32 102 32 102 32 102 32 102 32 102 32 102 32 102 32 102 32 102 32 102 32 102 32 102 32 102 32 102 32 102 32 102 32 102 32 102 32 102 32 102 32 102 32 102 32 102 32 102 32 102 32 102 32 102 32 102 32 102 32 102 32 102 32 102 32 102 32 102 32 102 32 102 32 102 32 102 32 102 32 102 32 102 32 102 32 102 32 102 32 102 32 102 32 102 32 102 32 102 32 102 32 102 32 102 32 102 32 102 32 102 32 102 32 102 32 102 32 102 32 102 32 102 32 102 32 102 32 102 32 102 32 102 32 102 32 102 32 102 32 102 32 102 32 102 32 102 32 102 32 102 32 102 32 102 32 102 32 102 32 102 32 102 32 102 
100 121 100 121 100 121 100 121 100 121 100 121 100 121 100 121 100 121 100 121 100 121 100 121 100 121 100 121 100 121 100 121 100 121 100 121 100 121 100 121 100 121 100 121 100 121 100 121 100 121 100 121 100 121 100 121 100 121 100 121 100 121 100 121 100 121 100 121 100 121 100 121 100 121 100 121 100 121 100 121 100 121 100 121 100 121 100 121 100 121 100 121 100 121 100 121 100 121 100 121 100 121 100 121 100 121 100 121 100 121 100 121 100 121 100 121 100 121 100 121 100 121 100 121 100 121 100 121 100 121 100 121 100 121 100 121 100 121 100 121 100 121 100 121 100 121 100 121 100 121 100 121 100 121 100 121 100 121 100 121 100 121 100 121 100 121 100 121 100 121 100 121 100 121 100 121 100 121 100 121 100 121 100 121 100 121 100 121 100 121 100 121 100 121 100 121 100 121 100 121 
8 186 8 186 8 186 8 186 8 186 8 186 8 186 8 186 8 186 8 186 8 186 8 186 8 186 8 186 8 186 8 186 8 186 8 186 8 186 8 186 8 186 8 186 8 186 8 186 8 186 8 186 8 186 8 186 8 186 8 186 8 186 8 186 8 186 8 186 8 186 8 186 8 186 8 186 8 186 8 186 8 186 8 186 8 186 8 186 8 186 8 186 8 186 8 186 8 186 8 186 8 186 8 186 8 186 8 186 8 186 8 186 8 186 8 186 8 186 8 186 8 186 8 186 8 186 8 186 8 186 8 186 8 186 8 186 8 186 8 186 8 186 8 186 8 186 8 186 8 186 8 186 8 186 8 186 8 186 8 186 8 186 8 186 8 186 8 186 8 186 8 186 8 186 8 186 8 186 8 186 8 186 8 186 8 186 8 186 8 186 8 186 8 186 8 186 8 186 8 186 
2 112 2 112 2 112 2 112 2 112 2 112 2 112 2 112 2 112 2 112 2 112 2 112 2 112 2 112 2 112 2 112 2 112 2 112 2 112 2 112 2 112 2 112 2 112 2 112 2 112 2 112 2 112 2 112 2 112 2 112 2 112 2 112 2 112 2 112 2 112 2 112 2 112 2 112 2 112 2 112 2 112 2 112 2 112 2 112 2 112 2 112 2 112 2 112 2 112 2 112 2 112 2 112 2 112 2 112 2 112 2 112 2 112 2 112 2 112 2 112 2 112 2 112 2 112 2 112 2 112 2 112 2 112 2 112 2 112 2 112 2 112 2 112 2 112 2 112 2 112 2 112 2 112 2 112 2 112 2 112 2 112 2 112 2 112 2 112 2 112 2 112 2 112 2 112 2 112 2 112 2 112 2 112 2 112 2 112 2 112 2 112 2 112 2 112 2 112 2 112 
37 147 37 147 37 147 37 147 37 147 37 147 37 147 37 147 37 147 37 147 37 147 37 147 37 147 37 147 37 147 37 147 37 147 37 147 37 147 37 147 37 147 37 147 37 147 37 147 37 147 37 147 37 147 37 147 37 147 37 147 37 147 37 147 37 147 37 147 37 147 37 147 37 147 37 147 37 147 37 147 37 147 37 147 37 147 37 147 37 147 37 147 37 147 37 147 37 147 37 147 37 147 37 147 37 147 37 147 37 147 37 147 37 147 37 147 37 147 37 147 37 147 37 147 37 147 37 147 37 147 37 147 37 147 37 147 37 147 37 147 37 147 37 147 37 147 37 147 37 147 37 147 37 147 37 147 37 147 37 147 37 147 37 147 37 147 37 147 37 147 37 147 37 147 37 147 37 147 37 147 37 147 37 147 37 147 37 147 37 147 37 147 37 147 37 147 37 147 37 147 
24 167 24 167 24 167 24 167 24 167 24 167 24 167 24 167 24 167 24 167 24 167 24 167 24 167 24 167 24 167 24 167 24 167 24 167 24 167 24 167 24 167 24 167 24 167 24 167 24 167 24 167 24 167 24 167 24 167 24 167 24 167 24 167 24 167 24 167 24 167 24 167 24 167 24 167 24 167 24 167 24 167 24 167 24 167 24 167 24 167 24 167 24 167 24 167 24 167 24 167 24 167 24 167 24 167 24 167 24 167 24 167 24 167 24 167 24 167 24 167 24 167 24 167 24 167 24 167 24 167 24 167 24 167 24 167 24 167 24 167 24 167 24 167 24 167 24 167 24 167 24 167 24 167 24 167 24 167 24 167 24 167 24 167 24 167 24 167 24 167 24 167 24 167 24 167 24 167 24 167 24 167 24 167 24 167 24 167 24 167 24 167 24 167 24 167 24 167 24 167 
92 138 92 138 92 138 92 138 92 138 92 138 92 138 92 138 92 138 92 138 92 138 92 138 92 138 92 138 92 138 92 138 92 138 92 138 92 138 92 138 92 138 92 138 92 138 92 138 92 138 92 138 92 138 92 138 92 138 92 138 92 138 92 138 92 138 92 138 92 138 92 138 92 138 92 138 92 138 92 138 92 138 92 138 92 138 92 138 92 138 92 138 92 138 92 138 92 138 92 138 92 138 92 138 92 138 92 138 92 138 92 138 92 138 92 138 92 138 92 138 92 138 92 138 92 138 92 138 92 138 92 138 92 138 92 138 92 138 92 138 92 138 92 138 92 138 92 138 92 138 92 138 92 138 92 138 92 138 92 138 92 138 92 138 92 138 92 138 92 138 92 138 92 138 92 138 92 138 92 138 92 138 92 138 92 138 92 138 92 138 92 138 92 138 92 138 92 138 92 138 
116 195 116 195 116 195 116 195 116 195 116 195 116 195 116 195 116 195 116 195 116 195 116 195 116 195 116 195 116 195 116 195 116 195 116 195 116 195 116 195 116 195 116 195 116 195 116 195 116 195 116 195 116 195 116 195 116 195 116 195 116 195 116 195 116 195 116 195 116 195 116 195 116 195 116 195 116 195 116 195 116 195 116 195 116 195 116 195 116 195 116 195 116 195 116 195 116 195 116 195 116 195 116 195 116 195 116 195 116 195 116 195 116 195 116 195 116 195 116 195 116 195 116 195 116 195 116 195 116 195 116 195 116 195 116 195 116 195 116 195 116 195 116 195 116 195 116 195 116 195 116 195 116 195 116 195 116 195 116 195 116 195 116 195 116 195 116 195 116 195 116 195 116 195 116 195 116 195 116 195 116 195 116 195 116 195 116 195 116 195 116 195 116 195 116 195 116 195 116 195 
179 72 179 72 179 72 179 72 179 72 179 72 179 72 179 72 179 72 179 72 179 72 179 72 179 72 179 72 179 72 179 72 179 72 179 72 179 72 179 72 179 72 179 72 179 72 179 72 179 72 179 72 179 72 179 72 179 72 179 72 179 72 179 72 179 72 179 72 179 72 179 72 179 72 179 72 179 72 179 72 179 72 179 72 179 72 179 72 179 72 179 72 179 72 179 72 179 72 179 72 179 72 179 72 179 72 179 72 179 72 179 72 179 72 179 72 179 72 179 72 179 72 179 72 179 72 179 72 179 72 179 72 179 72 179 72 179 72 179 72 179 72 179 72 179 72 179 72 179 72 179 72 179 72 179 72 179 72 179 72 179 72 179 72 179 72 179 72 179 72 179 72 179 72 179 72 179 72 179 72 179 72 179 72 179 72 179 72 179 72 179 72 179 72 179 72 179 72 179 72 
85 190 85 190 85 190 85 190 85 190 85 190 85 190 85 190 85 190 85 190 85 190 85 190 85 190 85 190 85 190 85 190 85 190 85 190 85 190 85 190 85 190 85 190 85 190 85 190 85 190 85 190 85 190 85 190 85 190 85 190 85 190 85 190 85 190 85 190 85 190 85 190 85 190 85 190 85 190 85 190 85 190 85 190 85 190 85 190 85 190 85 190 85 190 85 190 85 190 85 190 85 190 85 190 85 190 85 190 85 190 85 190 85 190 85 190 85 190 85 190 85 190 85 190 85 190 85 190 85 190 85 190 85 190 85 190 85 190 85 190 85 190 85 190 85 190 85 190 85 190 85 190 85 190 85 190 85 190 85 190 85 190 85 190 85 190 85 190 85 190 85 190 85 190 85 190 85 190 85 190 85 190 85 190 85 190 85 190 85 190 85 190 85 190 85 190 85 190 85 190 
5 131 5 131 5 131 5 131 5 131 5 131 5 131 5 131 5 131 5 131 5 131 5 131 5 131 5 131 5 131 5 131 5 131 5 131 5 131 5 131 5 131 5 131 5 131 5 131 5 131 5 131 5 131 5 131 5 131 5 131 5 131 5 131 5 131 5 131 5 131 5 131 5 131 5 131 5 131 5 131 5 131 5 131 5 131 5 131 5 131 5 131 5 131 5 131 5 131 5 131 5 131 5 131 5 131 5 131 5 131 5 131 5 131 5 131 5 131 5 131 5 131 5 131 5 131 5 131 5 131 5 131 5 131 5 131 5 131 5 131 5 131 5 131 5 131 5 131 5 131 5 131 5 131 5 131 5 131 5 131 5 131 5 131 5 131 5 131 5 131 5 131 5 131 5 131 5 131 5 131 5 131 5 131 5 131 5 131 5 131 5 131 5 131 5 131 5 131 5 131 
130 32 130 32 130 32 130 32 130 32 130 32 130 32 130 32 130 32 130 32 130 32 130 32 130 32 130 32 130 32 130 32 130 32 130 32 130 32 130 32 130 32 130 32 130 32 130 32 130 32 130 32 130 32 130 32 130 32 130 32 130 32 130 32 130 32 130 32 130 32 130 32 130 32 130 32 130 32 130 32 130 32 130 32 130 32 130 32 130 32 130 32 130 32 130 32 130 32 130 32 130 32 130 32 130 32 130 32 130 32 130 32 130 32 130 32 130 32 130 32 130 32 130 32 130 32 130 32 130 32 130 32 130 32 130 32 130 32 130 32 130 32 130 32 130 32 130 32 130 32 130 32 130 32 130 32 130 32 130 32 130 32 130 32 130 32 130 32 130 32 130 32 130 32 130 32 130 32 130 32 130 32 130 32 130 32 130 32 130 32 130 32 130 32 130 32 130 32 130 32 
94 193 94 193 94 193 94 193 94 193 94 193 94 193 94 193 94 193 94 193 94 193 94 193 94 193 94 193 94 193 94 193 94 193 94 193 94 193 94 193 94 193 94 193 94 193 94 193 94 193 94 193 94 193 94 193 94 193 94 193 94 193 94 193 94 193 94 193 94 193 94 193 94 193 94 193 94 193 94 193 94 193 94 193 94 193 94 193 94 193 94 193 94 193 94 193 94 193 94 193 94 193 94 193 94 193 94 193 94 193 94 193 94 193 94 193 94 193 94 193 94 193 94 193 94 193 94 193 94 193 94 193 94 193 94 193 94 193 94 193 94 193 94 193 94 193 94 193 94 193 94 193 94 193 94 193 94 193 94 193 94 193 94 193 94 193 94 193 94 193 94 193 94 193 94 193 94 193 94 193 94 193 94 193 94 193 94 193 94 193 94 193 94 193 94 193 94 193 94 193 
44 156 44 156 44 156 44 156 44 156 44 156 44 156 44 156 44 156 44 156 44 156 44 156 44 156 44 156 44 156 44 156 44 156 44 156 44 156 44 156 44 156 44 156 44 156 44 156 44 156 44 156 44 156 44 156 44 156 44 156 44 156 44 156 44 156 44 156 44 156 44 156 44 156 44 156 44 156 44 156 44 156 44 156 44 156 44 156 44 156 44 156 44 156 44 156 44 156 44 156 44 156 44 156 44 156 44 156 44 156 44 156 44 156 44 156 44 156 44 156 44 156 44 156 44 156 44 156 44 156 44 156 44 156 44 156 44 156 44 156 44 156 44 156 44 156 44 156 44 156 44 156 44 156 44 156 44 156 44 156 44 156 44 156 44 156 44 156 44 156 44 156 44 156 44 156 44 156 44 156 44 156 44 156 44 156 44 156 44 156 44 156 44 156 44 156 44 156 44 156 
